* #variable= 1155 #constraint= 594 
+1 x1123 = 0 ;
+1 x92 -1 x317 = 0 ;
+1 x317 -1 x477 = 0 ;
+1 x477 -1 x594 = 0 ;
+1 x594 -1 x682 = 0 ;
+1 x682 -1 x753 = 0 ;
+1 x753 -1 x812 = 0 ;
+1 x868 +2 x883 +4 x898 +8 x913 +16 x928 +32 x943 +64 x958 +128 x973 +256 x988 +512 x1003 +1024 x1018 +2048 x1033 +4096 x1048 +8192 x1063 +16384 x1078 +2 x869 +4 x884 +8 x899 +16 x914 +32 x929 +64 x944 +128 x959 +256 x974 +512 x989 +1024 x1004 +2048 x1019 +4096 x1034 +8192 x1049 +16384 x1064 +32768 x1079 +4 x870 +8 x885 +16 x900 +32 x915 +64 x930 +128 x945 +256 x960 +512 x975 +1024 x990 +2048 x1005 +4096 x1020 +8192 x1035 +16384 x1050 +32768 x1065 +65536 x1080 +8 x871 +16 x886 +32 x901 +64 x916 +128 x931 +256 x946 +512 x961 +1024 x976 +2048 x991 +4096 x1006 +8192 x1021 +16384 x1036 +32768 x1051 +65536 x1066 +131072 x1081 +16 x872 +32 x887 +64 x902 +128 x917 +256 x932 +512 x947 +1024 x962 +2048 x977 +4096 x992 +8192 x1007 +16384 x1022 +32768 x1037 +65536 x1052 +131072 x1067 +262144 x1082 +32 x873 +64 x888 +128 x903 +256 x918 +512 x933 +1024 x948 +2048 x963 +4096 x978 +8192 x993 +16384 x1008 +32768 x1023 +65536 x1038 +131072 x1053 +262144 x1068 +524288 x1083 +64 x874 +128 x889 +256 x904 +512 x919 +1024 x934 +2048 x949 +4096 x964 +8192 x979 +16384 x994 +32768 x1009 +65536 x1024 +131072 x1039 +262144 x1054 +524288 x1069 +1048576 x1084 +128 x875 +256 x890 +512 x905 +1024 x920 +2048 x935 +4096 x950 +8192 x965 +16384 x980 +32768 x995 +65536 x1010 +131072 x1025 +262144 x1040 +524288 x1055 +1048576 x1070 +2097152 x1085 +256 x876 +512 x891 +1024 x906 +2048 x921 +4096 x936 +8192 x951 +16384 x966 +32768 x981 +65536 x996 +131072 x1011 +262144 x1026 +524288 x1041 +1048576 x1056 +2097152 x1071 +4194304 x1086 +512 x877 +1024 x892 +2048 x907 +4096 x922 +8192 x937 +16384 x952 +32768 x967 +65536 x982 +131072 x997 +262144 x1012 +524288 x1027 +1048576 x1042 +2097152 x1057 +4194304 x1072 +8388608 x1087 +1024 x878 +2048 x893 +4096 x908 +8192 x923 +16384 x938 +32768 x953 +65536 x968 +131072 x983 +262144 x998 +524288 x1013 +1048576 x1028 +2097152 x1043 +4194304 x1058 +8388608 x1073 +16777216 x1088 +2048 x879 +4096 x894 +8192 x909 +16384 x924 +32768 x939 +65536 x954 +131072 x969 +262144 x984 +524288 x999 +1048576 x1014 +2097152 x1029 +4194304 x1044 +8388608 x1059 +16777216 x1074 +33554432 x1089 +4096 x880 +8192 x895 +16384 x910 +32768 x925 +65536 x940 +131072 x955 +262144 x970 +524288 x985 +1048576 x1000 +2097152 x1015 +4194304 x1030 +8388608 x1045 +16777216 x1060 +33554432 x1075 +67108864 x1090 +8192 x881 +16384 x896 +32768 x911 +65536 x926 +131072 x941 +262144 x956 +524288 x971 +1048576 x986 +2097152 x1001 +4194304 x1016 +8388608 x1031 +16777216 x1046 +33554432 x1061 +67108864 x1076 +134217728 x1091 +16384 x882 +32768 x897 +65536 x912 +131072 x927 +262144 x942 +524288 x957 +1048576 x972 +2097152 x987 +4194304 x1002 +8388608 x1017 +16777216 x1032 +33554432 x1047 +67108864 x1062 +134217728 x1077 +268435456 x1092 -1 x32 -2 x33 -4 x34 -8 x35 -16 x36 -32 x37 -64 x38 -128 x39 -256 x40 -512 x41 -1024 x42 -2048 x43 -4096 x44 -8192 x45 -16384 x46 -32768 x47 -65536 x48 -131072 x49 -262144 x50 -524288 x51 -1048576 x52 -2097152 x53 -4194304 x54 -8388608 x55 -16777216 x56 -33554432 x57 -67108864 x58 -134217728 x59 -268435456 x60 -536870912 x61 = 0; 
+1 x1 -1 x32 +2 x2 -2 x33 +4 x3 -4 x34 +8 x4 -8 x35 +16 x5 -16 x36 +32 x6 -32 x37 +64 x7 -64 x38 +128 x8 -128 x39 +256 x9 -256 x40 +512 x10 -512 x41 +1024 x11 -1024 x42 +2048 x12 -2048 x43 +4096 x13 -4096 x44 +8192 x14 -8192 x45 +16384 x15 -16384 x46 +32768 x16 -32768 x47 +65536 x17 -65536 x48 +131072 x18 -131072 x49 +262144 x19 -262144 x50 +524288 x20 -524288 x51 +1048576 x21 -1048576 x52 +2097152 x22 -2097152 x53 +4194304 x23 -4194304 x54 +8388608 x24 -8388608 x55 +16777216 x25 -16777216 x56 +33554432 x26 -33554432 x57 +67108864 x27 -67108864 x58 +134217728 x28 -134217728 x59 +268435456 x29 -268435456 x60 +536870912 x30 -536870912 x61 >= 1 ;
+1 x1124 = 0 ;
+2 x318 +1 x319 -1 x94 -1 x93 = 0 ;
+1 x319 -1 x478 = 0 ;
+1 x478 -1 x595 = 0 ;
+1 x595 -1 x683 = 0 ;
+1 x683 -1 x754 = 0 ;
+1 x754 -1 x813 = 0 ;
+1 x1125 = 0 ;
+2 x320 +1 x321 -1 x97 -1 x95 -1 x96 = 0 ;
+2 x479 +1 x480 -1 x318 -1 x321 = 0 ;
+1 x480 -1 x596 = 0 ;
+1 x596 -1 x684 = 0 ;
+1 x684 -1 x755 = 0 ;
+1 x755 -1 x814 = 0 ;
+1 x1126 = 0 ;
+2 x322 +1 x323 -1 x100 -1 x98 -1 x99 = 0 ;
+1 x101 -1 x373 = 0 ;
+2 x481 +1 x482 -1 x373 -1 x323 -1 x320 = 0 ;
+2 x597 +1 x598 -1 x479 -1 x482 = 0 ;
+1 x598 -1 x685 = 0 ;
+1 x685 -1 x756 = 0 ;
+1 x756 -1 x815 = 0 ;
+1 x1127 = 0 ;
+2 x324 +1 x325 -1 x104 -1 x102 -1 x103 = 0 ;
+2 x374 +1 x375 -1 x106 -1 x105 = 0 ;
+2 x483 +1 x484 -1 x375 -1 x325 -1 x322 = 0 ;
+2 x599 +1 x600 -1 x481 -1 x484 = 0 ;
+2 x686 +1 x687 -1 x597 -1 x600 = 0 ;
+1 x687 -1 x757 = 0 ;
+1 x757 -1 x816 = 0 ;
+1 x1128 = 0 ;
+2 x326 +1 x327 -1 x109 -1 x107 -1 x108 = 0 ;
+2 x376 +1 x377 -1 x112 -1 x110 -1 x111 = 0 ;
+2 x485 +1 x486 -1 x377 -1 x327 -1 x324 = 0 ;
+1 x374 -1 x533 = 0 ;
+2 x601 +1 x602 -1 x533 -1 x486 -1 x483 = 0 ;
+2 x688 +1 x689 -1 x599 -1 x602 = 0 ;
+2 x758 +1 x759 -1 x686 -1 x689 = 0 ;
+1 x759 -1 x817 = 0 ;
+1 x1129 = 0 ;
+2 x328 +1 x329 -1 x115 -1 x113 -1 x114 = 0 ;
+2 x378 +1 x379 -1 x118 -1 x116 -1 x117 = 0 ;
+1 x119 -1 x417 = 0 ;
+2 x487 +1 x488 -1 x379 -1 x329 -1 x326 = 0 ;
+2 x534 +1 x535 -1 x417 -1 x376 = 0 ;
+2 x603 +1 x604 -1 x535 -1 x488 -1 x485 = 0 ;
+2 x690 +1 x691 -1 x601 -1 x604 = 0 ;
+2 x760 +1 x761 -1 x688 -1 x691 = 0 ;
+2 x818 +1 x819 -1 x758 -1 x761 = 0 ;
+1 x1130 = 0 ;
+2 x330 +1 x331 -1 x122 -1 x120 -1 x121 = 0 ;
+2 x380 +1 x381 -1 x125 -1 x123 -1 x124 = 0 ;
+2 x418 +1 x419 -1 x127 -1 x126 = 0 ;
+2 x489 +1 x490 -1 x381 -1 x331 -1 x328 = 0 ;
+2 x536 +1 x537 -1 x419 -1 x378 = 0 ;
+2 x605 +1 x606 -1 x537 -1 x490 -1 x487 = 0 ;
+1 x534 -1 x650 = 0 ;
+2 x692 +1 x693 -1 x650 -1 x606 -1 x603 = 0 ;
+2 x762 +1 x763 -1 x690 -1 x693 = 0 ;
+2 x820 +1 x821 -1 x760 -1 x763 = 0 ;
+1 x1131 = 0 ;
+2 x332 +1 x333 -1 x130 -1 x128 -1 x129 = 0 ;
+2 x382 +1 x383 -1 x133 -1 x131 -1 x132 = 0 ;
+2 x420 +1 x421 -1 x136 -1 x134 -1 x135 = 0 ;
+2 x491 +1 x492 -1 x383 -1 x333 -1 x330 = 0 ;
+2 x538 +1 x539 -1 x418 -1 x380 -1 x421 = 0 ;
+2 x607 +1 x608 -1 x539 -1 x492 -1 x489 = 0 ;
+1 x536 -1 x651 = 0 ;
+2 x694 +1 x695 -1 x651 -1 x608 -1 x605 = 0 ;
+2 x764 +1 x765 -1 x692 -1 x695 = 0 ;
+2 x822 +1 x823 -1 x762 -1 x765 = 0 ;
+1 x1132 = 0 ;
+2 x334 +1 x335 -1 x139 -1 x137 -1 x138 = 0 ;
+2 x384 +1 x385 -1 x142 -1 x140 -1 x141 = 0 ;
+2 x422 +1 x423 -1 x145 -1 x143 -1 x144 = 0 ;
+1 x146 -1 x449 = 0 ;
+2 x493 +1 x494 -1 x385 -1 x335 -1 x332 = 0 ;
+2 x540 +1 x541 -1 x420 -1 x382 -1 x423 = 0 ;
+1 x449 -1 x571 = 0 ;
+2 x609 +1 x610 -1 x541 -1 x494 -1 x491 = 0 ;
+2 x652 +1 x653 -1 x571 -1 x538 = 0 ;
+2 x696 +1 x697 -1 x653 -1 x610 -1 x607 = 0 ;
+2 x766 +1 x767 -1 x694 -1 x697 = 0 ;
+2 x824 +1 x825 -1 x764 -1 x767 = 0 ;
+1 x1133 = 0 ;
+2 x336 +1 x337 -1 x149 -1 x147 -1 x148 = 0 ;
+2 x386 +1 x387 -1 x152 -1 x150 -1 x151 = 0 ;
+2 x424 +1 x425 -1 x155 -1 x153 -1 x154 = 0 ;
+2 x450 +1 x451 -1 x157 -1 x156 = 0 ;
+2 x495 +1 x496 -1 x387 -1 x337 -1 x334 = 0 ;
+2 x542 +1 x543 -1 x422 -1 x384 -1 x425 = 0 ;
+1 x451 -1 x572 = 0 ;
+2 x611 +1 x612 -1 x543 -1 x496 -1 x493 = 0 ;
+2 x654 +1 x655 -1 x572 -1 x540 = 0 ;
+2 x698 +1 x699 -1 x655 -1 x612 -1 x609 = 0 ;
+1 x652 -1 x738 = 0 ;
+2 x768 +1 x769 -1 x738 -1 x699 -1 x696 = 0 ;
+2 x826 +1 x827 -1 x766 -1 x769 = 0 ;
+1 x1134 = 0 ;
+2 x338 +1 x339 -1 x160 -1 x158 -1 x159 = 0 ;
+2 x388 +1 x389 -1 x163 -1 x161 -1 x162 = 0 ;
+2 x426 +1 x427 -1 x166 -1 x164 -1 x165 = 0 ;
+2 x452 +1 x453 -1 x169 -1 x167 -1 x168 = 0 ;
+2 x497 +1 x498 -1 x389 -1 x339 -1 x336 = 0 ;
+2 x544 +1 x545 -1 x424 -1 x386 -1 x427 = 0 ;
+2 x573 +1 x574 -1 x450 -1 x453 = 0 ;
+2 x613 +1 x614 -1 x545 -1 x498 -1 x495 = 0 ;
+2 x656 +1 x657 -1 x574 -1 x542 = 0 ;
+2 x700 +1 x701 -1 x657 -1 x614 -1 x611 = 0 ;
+1 x654 -1 x739 = 0 ;
+2 x770 +1 x771 -1 x739 -1 x701 -1 x698 = 0 ;
+2 x828 +1 x829 -1 x768 -1 x771 = 0 ;
+1 x1135 = 0 ;
+2 x340 +1 x341 -1 x172 -1 x170 -1 x171 = 0 ;
+2 x390 +1 x391 -1 x175 -1 x173 -1 x174 = 0 ;
+2 x428 +1 x429 -1 x178 -1 x176 -1 x177 = 0 ;
+2 x454 +1 x455 -1 x181 -1 x179 -1 x180 = 0 ;
+1 x182 -1 x469 = 0 ;
+2 x499 +1 x500 -1 x391 -1 x341 -1 x338 = 0 ;
+2 x546 +1 x547 -1 x426 -1 x388 -1 x429 = 0 ;
+2 x575 +1 x576 -1 x469 -1 x455 -1 x452 = 0 ;
+2 x615 +1 x616 -1 x547 -1 x500 -1 x497 = 0 ;
+2 x658 +1 x659 -1 x573 -1 x544 -1 x576 = 0 ;
+2 x702 +1 x703 -1 x659 -1 x616 -1 x613 = 0 ;
+1 x656 -1 x740 = 0 ;
+2 x772 +1 x773 -1 x740 -1 x703 -1 x700 = 0 ;
+2 x830 +1 x831 -1 x770 -1 x773 = 0 ;
+1 x1136 = 0 ;
+2 x342 +1 x343 -1 x185 -1 x183 -1 x184 = 0 ;
+2 x392 +1 x393 -1 x188 -1 x186 -1 x187 = 0 ;
+2 x430 +1 x431 -1 x191 -1 x189 -1 x190 = 0 ;
+2 x456 +1 x457 -1 x194 -1 x192 -1 x193 = 0 ;
+2 x470 +1 x471 -1 x196 -1 x195 = 0 ;
+2 x501 +1 x502 -1 x393 -1 x343 -1 x340 = 0 ;
+2 x548 +1 x549 -1 x428 -1 x390 -1 x431 = 0 ;
+2 x577 +1 x578 -1 x471 -1 x457 -1 x454 = 0 ;
+2 x617 +1 x618 -1 x549 -1 x502 -1 x499 = 0 ;
+2 x660 +1 x661 -1 x575 -1 x546 -1 x578 = 0 ;
+2 x704 +1 x705 -1 x661 -1 x618 -1 x615 = 0 ;
+1 x658 -1 x741 = 0 ;
+2 x774 +1 x775 -1 x741 -1 x705 -1 x702 = 0 ;
+2 x832 +1 x833 -1 x772 -1 x775 = 0 ;
+1 x1137 = 0 ;
+2 x344 +1 x345 -1 x199 -1 x197 -1 x198 = 0 ;
+2 x394 +1 x395 -1 x202 -1 x200 -1 x201 = 0 ;
+2 x432 +1 x433 -1 x205 -1 x203 -1 x204 = 0 ;
+2 x458 +1 x459 -1 x208 -1 x206 -1 x207 = 0 ;
+2 x472 +1 x473 -1 x211 -1 x209 -1 x210 = 0 ;
+2 x503 +1 x504 -1 x395 -1 x345 -1 x342 = 0 ;
+2 x550 +1 x551 -1 x430 -1 x392 -1 x433 = 0 ;
+2 x579 +1 x580 -1 x473 -1 x459 -1 x456 = 0 ;
+1 x470 -1 x591 = 0 ;
+2 x619 +1 x620 -1 x551 -1 x504 -1 x501 = 0 ;
+2 x662 +1 x663 -1 x577 -1 x548 -1 x580 = 0 ;
+1 x591 -1 x679 = 0 ;
+2 x706 +1 x707 -1 x663 -1 x620 -1 x617 = 0 ;
+2 x742 +1 x743 -1 x679 -1 x660 = 0 ;
+2 x776 +1 x777 -1 x743 -1 x707 -1 x704 = 0 ;
+2 x834 +1 x835 -1 x774 -1 x777 = 0 ;
+1 x1138 = 0 ;
+2 x346 +1 x347 -1 x214 -1 x212 -1 x213 = 0 ;
+2 x396 +1 x397 -1 x217 -1 x215 -1 x216 = 0 ;
+2 x434 +1 x435 -1 x220 -1 x218 -1 x219 = 0 ;
+2 x460 +1 x461 -1 x223 -1 x221 -1 x222 = 0 ;
+2 x474 +1 x475 -1 x225 -1 x224 = 0 ;
+2 x505 +1 x506 -1 x397 -1 x347 -1 x344 = 0 ;
+2 x552 +1 x553 -1 x432 -1 x394 -1 x435 = 0 ;
+2 x581 +1 x582 -1 x475 -1 x461 -1 x458 = 0 ;
+1 x472 -1 x592 = 0 ;
+2 x621 +1 x622 -1 x553 -1 x506 -1 x503 = 0 ;
+2 x664 +1 x665 -1 x579 -1 x550 -1 x582 = 0 ;
+1 x592 -1 x680 = 0 ;
+2 x708 +1 x709 -1 x665 -1 x622 -1 x619 = 0 ;
+2 x744 +1 x745 -1 x680 -1 x662 = 0 ;
+2 x778 +1 x779 -1 x745 -1 x709 -1 x706 = 0 ;
+1 x742 -1 x809 = 0 ;
+2 x836 +1 x837 -1 x809 -1 x779 -1 x776 = 0 ;
+1 x1139 = 0 ;
+2 x348 +1 x349 -1 x228 -1 x226 -1 x227 = 0 ;
+2 x398 +1 x399 -1 x231 -1 x229 -1 x230 = 0 ;
+2 x436 +1 x437 -1 x234 -1 x232 -1 x233 = 0 ;
+2 x462 +1 x463 -1 x237 -1 x235 -1 x236 = 0 ;
+1 x238 -1 x476 = 0 ;
+2 x507 +1 x508 -1 x399 -1 x349 -1 x346 = 0 ;
+2 x554 +1 x555 -1 x434 -1 x396 -1 x437 = 0 ;
+2 x583 +1 x584 -1 x476 -1 x463 -1 x460 = 0 ;
+1 x474 -1 x593 = 0 ;
+2 x623 +1 x624 -1 x555 -1 x508 -1 x505 = 0 ;
+2 x666 +1 x667 -1 x581 -1 x552 -1 x584 = 0 ;
+1 x593 -1 x681 = 0 ;
+2 x710 +1 x711 -1 x667 -1 x624 -1 x621 = 0 ;
+2 x746 +1 x747 -1 x681 -1 x664 = 0 ;
+2 x780 +1 x781 -1 x747 -1 x711 -1 x708 = 0 ;
+1 x744 -1 x810 = 0 ;
+2 x838 +1 x839 -1 x810 -1 x781 -1 x778 = 0 ;
+1 x1140 = 0 ;
+2 x350 +1 x351 -1 x241 -1 x239 -1 x240 = 0 ;
+2 x400 +1 x401 -1 x244 -1 x242 -1 x243 = 0 ;
+2 x438 +1 x439 -1 x247 -1 x245 -1 x246 = 0 ;
+2 x464 +1 x465 -1 x250 -1 x248 -1 x249 = 0 ;
+2 x509 +1 x510 -1 x401 -1 x351 -1 x348 = 0 ;
+2 x556 +1 x557 -1 x436 -1 x398 -1 x439 = 0 ;
+2 x585 +1 x586 -1 x462 -1 x465 = 0 ;
+2 x625 +1 x626 -1 x557 -1 x510 -1 x507 = 0 ;
+2 x668 +1 x669 -1 x583 -1 x554 -1 x586 = 0 ;
+2 x712 +1 x713 -1 x669 -1 x626 -1 x623 = 0 ;
+1 x666 -1 x748 = 0 ;
+2 x782 +1 x783 -1 x748 -1 x713 -1 x710 = 0 ;
+1 x746 -1 x811 = 0 ;
+2 x840 +1 x841 -1 x811 -1 x783 -1 x780 = 0 ;
+1 x1141 = 0 ;
+2 x352 +1 x353 -1 x253 -1 x251 -1 x252 = 0 ;
+2 x402 +1 x403 -1 x256 -1 x254 -1 x255 = 0 ;
+2 x440 +1 x441 -1 x259 -1 x257 -1 x258 = 0 ;
+2 x466 +1 x467 -1 x261 -1 x260 = 0 ;
+2 x511 +1 x512 -1 x403 -1 x353 -1 x350 = 0 ;
+2 x558 +1 x559 -1 x438 -1 x400 -1 x441 = 0 ;
+2 x587 +1 x588 -1 x464 -1 x467 = 0 ;
+2 x627 +1 x628 -1 x559 -1 x512 -1 x509 = 0 ;
+2 x670 +1 x671 -1 x585 -1 x556 -1 x588 = 0 ;
+2 x714 +1 x715 -1 x671 -1 x628 -1 x625 = 0 ;
+1 x668 -1 x749 = 0 ;
+2 x784 +1 x785 -1 x749 -1 x715 -1 x712 = 0 ;
+2 x842 +1 x843 -1 x782 -1 x785 = 0 ;
+1 x1142 = 0 ;
+2 x354 +1 x355 -1 x264 -1 x262 -1 x263 = 0 ;
+2 x404 +1 x405 -1 x267 -1 x265 -1 x266 = 0 ;
+2 x442 +1 x443 -1 x270 -1 x268 -1 x269 = 0 ;
+1 x271 -1 x468 = 0 ;
+2 x513 +1 x514 -1 x405 -1 x355 -1 x352 = 0 ;
+2 x560 +1 x561 -1 x440 -1 x402 -1 x443 = 0 ;
+2 x589 +1 x590 -1 x466 -1 x468 = 0 ;
+2 x629 +1 x630 -1 x561 -1 x514 -1 x511 = 0 ;
+2 x672 +1 x673 -1 x587 -1 x558 -1 x590 = 0 ;
+2 x716 +1 x717 -1 x673 -1 x630 -1 x627 = 0 ;
+1 x670 -1 x750 = 0 ;
+2 x786 +1 x787 -1 x750 -1 x717 -1 x714 = 0 ;
+2 x844 +1 x845 -1 x784 -1 x787 = 0 ;
+1 x1143 = 0 ;
+2 x356 +1 x357 -1 x274 -1 x272 -1 x273 = 0 ;
+2 x406 +1 x407 -1 x277 -1 x275 -1 x276 = 0 ;
+2 x444 +1 x445 -1 x280 -1 x278 -1 x279 = 0 ;
+2 x515 +1 x516 -1 x407 -1 x357 -1 x354 = 0 ;
+2 x562 +1 x563 -1 x442 -1 x404 -1 x445 = 0 ;
+2 x631 +1 x632 -1 x563 -1 x516 -1 x513 = 0 ;
+2 x674 +1 x675 -1 x589 -1 x560 = 0 ;
+2 x718 +1 x719 -1 x675 -1 x632 -1 x629 = 0 ;
+1 x672 -1 x751 = 0 ;
+2 x788 +1 x789 -1 x751 -1 x719 -1 x716 = 0 ;
+2 x846 +1 x847 -1 x786 -1 x789 = 0 ;
+1 x1144 = 0 ;
+2 x358 +1 x359 -1 x283 -1 x281 -1 x282 = 0 ;
+2 x408 +1 x409 -1 x286 -1 x284 -1 x285 = 0 ;
+2 x446 +1 x447 -1 x288 -1 x287 = 0 ;
+2 x517 +1 x518 -1 x409 -1 x359 -1 x356 = 0 ;
+2 x564 +1 x565 -1 x444 -1 x406 -1 x447 = 0 ;
+2 x633 +1 x634 -1 x565 -1 x518 -1 x515 = 0 ;
+1 x562 -1 x676 = 0 ;
+2 x720 +1 x721 -1 x676 -1 x634 -1 x631 = 0 ;
+1 x674 -1 x752 = 0 ;
+2 x790 +1 x791 -1 x752 -1 x721 -1 x718 = 0 ;
+2 x848 +1 x849 -1 x788 -1 x791 = 0 ;
+1 x1145 = 0 ;
+2 x360 +1 x361 -1 x291 -1 x289 -1 x290 = 0 ;
+2 x410 +1 x411 -1 x294 -1 x292 -1 x293 = 0 ;
+1 x295 -1 x448 = 0 ;
+2 x519 +1 x520 -1 x411 -1 x361 -1 x358 = 0 ;
+2 x566 +1 x567 -1 x446 -1 x408 -1 x448 = 0 ;
+2 x635 +1 x636 -1 x567 -1 x520 -1 x517 = 0 ;
+1 x564 -1 x677 = 0 ;
+2 x722 +1 x723 -1 x677 -1 x636 -1 x633 = 0 ;
+2 x792 +1 x793 -1 x720 -1 x723 = 0 ;
+2 x850 +1 x851 -1 x790 -1 x793 = 0 ;
+1 x1146 = 0 ;
+2 x362 +1 x363 -1 x298 -1 x296 -1 x297 = 0 ;
+2 x412 +1 x413 -1 x301 -1 x299 -1 x300 = 0 ;
+2 x521 +1 x522 -1 x413 -1 x363 -1 x360 = 0 ;
+1 x410 -1 x568 = 0 ;
+2 x637 +1 x638 -1 x568 -1 x522 -1 x519 = 0 ;
+1 x566 -1 x678 = 0 ;
+2 x724 +1 x725 -1 x678 -1 x638 -1 x635 = 0 ;
+2 x794 +1 x795 -1 x722 -1 x725 = 0 ;
+2 x852 +1 x853 -1 x792 -1 x795 = 0 ;
+1 x1147 = 0 ;
+2 x364 +1 x365 -1 x304 -1 x302 -1 x303 = 0 ;
+2 x414 +1 x415 -1 x306 -1 x305 = 0 ;
+2 x523 +1 x524 -1 x415 -1 x365 -1 x362 = 0 ;
+1 x412 -1 x569 = 0 ;
+2 x639 +1 x640 -1 x569 -1 x524 -1 x521 = 0 ;
+2 x726 +1 x727 -1 x637 -1 x640 = 0 ;
+2 x796 +1 x797 -1 x724 -1 x727 = 0 ;
+2 x854 +1 x855 -1 x794 -1 x797 = 0 ;
+1 x1148 = 0 ;
+2 x366 +1 x367 -1 x309 -1 x307 -1 x308 = 0 ;
+1 x310 -1 x416 = 0 ;
+2 x525 +1 x526 -1 x416 -1 x367 -1 x364 = 0 ;
+1 x414 -1 x570 = 0 ;
+2 x641 +1 x642 -1 x570 -1 x526 -1 x523 = 0 ;
+2 x728 +1 x729 -1 x639 -1 x642 = 0 ;
+2 x798 +1 x799 -1 x726 -1 x729 = 0 ;
+2 x856 +1 x857 -1 x796 -1 x799 = 0 ;
+1 x1149 = 0 ;
+2 x368 +1 x369 -1 x313 -1 x311 -1 x312 = 0 ;
+2 x527 +1 x528 -1 x366 -1 x369 = 0 ;
+2 x643 +1 x644 -1 x525 -1 x528 = 0 ;
+2 x730 +1 x731 -1 x641 -1 x644 = 0 ;
+2 x800 +1 x801 -1 x728 -1 x731 = 0 ;
+2 x858 +1 x859 -1 x798 -1 x801 = 0 ;
+1 x1150 = 0 ;
+2 x370 +1 x371 -1 x315 -1 x314 = 0 ;
+2 x529 +1 x530 -1 x368 -1 x371 = 0 ;
+2 x645 +1 x646 -1 x527 -1 x530 = 0 ;
+2 x732 +1 x733 -1 x643 -1 x646 = 0 ;
+2 x802 +1 x803 -1 x730 -1 x733 = 0 ;
+2 x860 +1 x861 -1 x800 -1 x803 = 0 ;
+1 x1151 = 0 ;
+1 x316 -1 x372 = 0 ;
+2 x531 +1 x532 -1 x370 -1 x372 = 0 ;
+2 x647 +1 x648 -1 x529 -1 x532 = 0 ;
+2 x734 +1 x735 -1 x645 -1 x648 = 0 ;
+2 x804 +1 x805 -1 x732 -1 x735 = 0 ;
+2 x862 +1 x863 -1 x802 -1 x805 = 0 ;
+1 x1152 = 0 ;
+1 x531 -1 x649 = 0 ;
+2 x736 +1 x737 -1 x647 -1 x649 = 0 ;
+2 x806 +1 x807 -1 x734 -1 x737 = 0 ;
+2 x864 +1 x865 -1 x804 -1 x807 = 0 ;
+1 x736 -1 x808 = 0 ;
+2 x866 +1 x867 -1 x806 -1 x808 = 0 ;
+1 x868 -1 x92 = 0 ;
+1 x869 -1 x94 = 0 ;
+1 x870 -1 x97 = 0 ;
+1 x871 -1 x101 = 0 ;
+1 x872 -1 x106 = 0 ;
+1 x873 -1 x112 = 0 ;
+1 x874 -1 x119 = 0 ;
+1 x875 -1 x127 = 0 ;
+1 x876 -1 x136 = 0 ;
+1 x877 -1 x146 = 0 ;
+1 x878 -1 x157 = 0 ;
+1 x879 -1 x169 = 0 ;
+1 x880 -1 x182 = 0 ;
+1 x881 -1 x196 = 0 ;
+1 x882 -1 x211 = 0 ;
+1 x883 -1 x93 = 0 ;
+1 x884 -1 x96 = 0 ;
+1 x885 -1 x100 = 0 ;
+1 x886 -1 x105 = 0 ;
+1 x887 -1 x111 = 0 ;
+1 x888 -1 x118 = 0 ;
+1 x889 -1 x126 = 0 ;
+1 x890 -1 x135 = 0 ;
+1 x891 -1 x145 = 0 ;
+1 x892 -1 x156 = 0 ;
+1 x893 -1 x168 = 0 ;
+1 x894 -1 x181 = 0 ;
+1 x895 -1 x195 = 0 ;
+1 x896 -1 x210 = 0 ;
+1 x897 -1 x225 = 0 ;
+1 x898 -1 x95 = 0 ;
+1 x899 -1 x99 = 0 ;
+1 x900 -1 x104 = 0 ;
+1 x901 -1 x110 = 0 ;
+1 x902 -1 x117 = 0 ;
+1 x903 -1 x125 = 0 ;
+1 x904 -1 x134 = 0 ;
+1 x905 -1 x144 = 0 ;
+1 x906 -1 x155 = 0 ;
+1 x907 -1 x167 = 0 ;
+1 x908 -1 x180 = 0 ;
+1 x909 -1 x194 = 0 ;
+1 x910 -1 x209 = 0 ;
+1 x911 -1 x224 = 0 ;
+1 x912 -1 x238 = 0 ;
+1 x913 -1 x98 = 0 ;
+1 x914 -1 x103 = 0 ;
+1 x915 -1 x109 = 0 ;
+1 x916 -1 x116 = 0 ;
+1 x917 -1 x124 = 0 ;
+1 x918 -1 x133 = 0 ;
+1 x919 -1 x143 = 0 ;
+1 x920 -1 x154 = 0 ;
+1 x921 -1 x166 = 0 ;
+1 x922 -1 x179 = 0 ;
+1 x923 -1 x193 = 0 ;
+1 x924 -1 x208 = 0 ;
+1 x925 -1 x223 = 0 ;
+1 x926 -1 x237 = 0 ;
+1 x927 -1 x250 = 0 ;
+1 x928 -1 x102 = 0 ;
+1 x929 -1 x108 = 0 ;
+1 x930 -1 x115 = 0 ;
+1 x931 -1 x123 = 0 ;
+1 x932 -1 x132 = 0 ;
+1 x933 -1 x142 = 0 ;
+1 x934 -1 x153 = 0 ;
+1 x935 -1 x165 = 0 ;
+1 x936 -1 x178 = 0 ;
+1 x937 -1 x192 = 0 ;
+1 x938 -1 x207 = 0 ;
+1 x939 -1 x222 = 0 ;
+1 x940 -1 x236 = 0 ;
+1 x941 -1 x249 = 0 ;
+1 x942 -1 x261 = 0 ;
+1 x943 -1 x107 = 0 ;
+1 x944 -1 x114 = 0 ;
+1 x945 -1 x122 = 0 ;
+1 x946 -1 x131 = 0 ;
+1 x947 -1 x141 = 0 ;
+1 x948 -1 x152 = 0 ;
+1 x949 -1 x164 = 0 ;
+1 x950 -1 x177 = 0 ;
+1 x951 -1 x191 = 0 ;
+1 x952 -1 x206 = 0 ;
+1 x953 -1 x221 = 0 ;
+1 x954 -1 x235 = 0 ;
+1 x955 -1 x248 = 0 ;
+1 x956 -1 x260 = 0 ;
+1 x957 -1 x271 = 0 ;
+1 x958 -1 x113 = 0 ;
+1 x959 -1 x121 = 0 ;
+1 x960 -1 x130 = 0 ;
+1 x961 -1 x140 = 0 ;
+1 x962 -1 x151 = 0 ;
+1 x963 -1 x163 = 0 ;
+1 x964 -1 x176 = 0 ;
+1 x965 -1 x190 = 0 ;
+1 x966 -1 x205 = 0 ;
+1 x967 -1 x220 = 0 ;
+1 x968 -1 x234 = 0 ;
+1 x969 -1 x247 = 0 ;
+1 x970 -1 x259 = 0 ;
+1 x971 -1 x270 = 0 ;
+1 x972 -1 x280 = 0 ;
+1 x973 -1 x120 = 0 ;
+1 x974 -1 x129 = 0 ;
+1 x975 -1 x139 = 0 ;
+1 x976 -1 x150 = 0 ;
+1 x977 -1 x162 = 0 ;
+1 x978 -1 x175 = 0 ;
+1 x979 -1 x189 = 0 ;
+1 x980 -1 x204 = 0 ;
+1 x981 -1 x219 = 0 ;
+1 x982 -1 x233 = 0 ;
+1 x983 -1 x246 = 0 ;
+1 x984 -1 x258 = 0 ;
+1 x985 -1 x269 = 0 ;
+1 x986 -1 x279 = 0 ;
+1 x987 -1 x288 = 0 ;
+1 x988 -1 x128 = 0 ;
+1 x989 -1 x138 = 0 ;
+1 x990 -1 x149 = 0 ;
+1 x991 -1 x161 = 0 ;
+1 x992 -1 x174 = 0 ;
+1 x993 -1 x188 = 0 ;
+1 x994 -1 x203 = 0 ;
+1 x995 -1 x218 = 0 ;
+1 x996 -1 x232 = 0 ;
+1 x997 -1 x245 = 0 ;
+1 x998 -1 x257 = 0 ;
+1 x999 -1 x268 = 0 ;
+1 x1000 -1 x278 = 0 ;
+1 x1001 -1 x287 = 0 ;
+1 x1002 -1 x295 = 0 ;
+1 x1003 -1 x137 = 0 ;
+1 x1004 -1 x148 = 0 ;
+1 x1005 -1 x160 = 0 ;
+1 x1006 -1 x173 = 0 ;
+1 x1007 -1 x187 = 0 ;
+1 x1008 -1 x202 = 0 ;
+1 x1009 -1 x217 = 0 ;
+1 x1010 -1 x231 = 0 ;
+1 x1011 -1 x244 = 0 ;
+1 x1012 -1 x256 = 0 ;
+1 x1013 -1 x267 = 0 ;
+1 x1014 -1 x277 = 0 ;
+1 x1015 -1 x286 = 0 ;
+1 x1016 -1 x294 = 0 ;
+1 x1017 -1 x301 = 0 ;
+1 x1018 -1 x147 = 0 ;
+1 x1019 -1 x159 = 0 ;
+1 x1020 -1 x172 = 0 ;
+1 x1021 -1 x186 = 0 ;
+1 x1022 -1 x201 = 0 ;
+1 x1023 -1 x216 = 0 ;
+1 x1024 -1 x230 = 0 ;
+1 x1025 -1 x243 = 0 ;
+1 x1026 -1 x255 = 0 ;
+1 x1027 -1 x266 = 0 ;
+1 x1028 -1 x276 = 0 ;
+1 x1029 -1 x285 = 0 ;
+1 x1030 -1 x293 = 0 ;
+1 x1031 -1 x300 = 0 ;
+1 x1032 -1 x306 = 0 ;
+1 x1033 -1 x158 = 0 ;
+1 x1034 -1 x171 = 0 ;
+1 x1035 -1 x185 = 0 ;
+1 x1036 -1 x200 = 0 ;
+1 x1037 -1 x215 = 0 ;
+1 x1038 -1 x229 = 0 ;
+1 x1039 -1 x242 = 0 ;
+1 x1040 -1 x254 = 0 ;
+1 x1041 -1 x265 = 0 ;
+1 x1042 -1 x275 = 0 ;
+1 x1043 -1 x284 = 0 ;
+1 x1044 -1 x292 = 0 ;
+1 x1045 -1 x299 = 0 ;
+1 x1046 -1 x305 = 0 ;
+1 x1047 -1 x310 = 0 ;
+1 x1048 -1 x170 = 0 ;
+1 x1049 -1 x184 = 0 ;
+1 x1050 -1 x199 = 0 ;
+1 x1051 -1 x214 = 0 ;
+1 x1052 -1 x228 = 0 ;
+1 x1053 -1 x241 = 0 ;
+1 x1054 -1 x253 = 0 ;
+1 x1055 -1 x264 = 0 ;
+1 x1056 -1 x274 = 0 ;
+1 x1057 -1 x283 = 0 ;
+1 x1058 -1 x291 = 0 ;
+1 x1059 -1 x298 = 0 ;
+1 x1060 -1 x304 = 0 ;
+1 x1061 -1 x309 = 0 ;
+1 x1062 -1 x313 = 0 ;
+1 x1063 -1 x183 = 0 ;
+1 x1064 -1 x198 = 0 ;
+1 x1065 -1 x213 = 0 ;
+1 x1066 -1 x227 = 0 ;
+1 x1067 -1 x240 = 0 ;
+1 x1068 -1 x252 = 0 ;
+1 x1069 -1 x263 = 0 ;
+1 x1070 -1 x273 = 0 ;
+1 x1071 -1 x282 = 0 ;
+1 x1072 -1 x290 = 0 ;
+1 x1073 -1 x297 = 0 ;
+1 x1074 -1 x303 = 0 ;
+1 x1075 -1 x308 = 0 ;
+1 x1076 -1 x312 = 0 ;
+1 x1077 -1 x315 = 0 ;
+1 x1078 -1 x197 = 0 ;
+1 x1079 -1 x212 = 0 ;
+1 x1080 -1 x226 = 0 ;
+1 x1081 -1 x239 = 0 ;
+1 x1082 -1 x251 = 0 ;
+1 x1083 -1 x262 = 0 ;
+1 x1084 -1 x272 = 0 ;
+1 x1085 -1 x281 = 0 ;
+1 x1086 -1 x289 = 0 ;
+1 x1087 -1 x296 = 0 ;
+1 x1088 -1 x302 = 0 ;
+1 x1089 -1 x307 = 0 ;
+1 x1090 -1 x311 = 0 ;
+1 x1091 -1 x314 = 0 ;
+1 x1092 -1 x316 = 0 ;
+2 x1093 +1 x1 -1 x812 -1 x1123 = 0 ;
+2 x1094 +1 x2 -1 x813 -1 x1093 -1 x1124 = 0 ;
+2 x1095 +1 x3 -1 x814 -1 x1094 -1 x1125 = 0 ;
+2 x1096 +1 x4 -1 x815 -1 x1095 -1 x1126 = 0 ;
+2 x1097 +1 x5 -1 x816 -1 x1096 -1 x1127 = 0 ;
+2 x1098 +1 x6 -1 x817 -1 x1097 -1 x1128 = 0 ;
+2 x1099 +1 x7 -1 x819 -1 x1098 -1 x1129 = 0 ;
+2 x1100 +1 x8 -1 x821 -1 x1099 -1 x818 = 0 ;
+2 x1101 +1 x9 -1 x823 -1 x1100 -1 x820 = 0 ;
+2 x1102 +1 x10 -1 x825 -1 x1101 -1 x822 = 0 ;
+2 x1103 +1 x11 -1 x827 -1 x1102 -1 x824 = 0 ;
+2 x1104 +1 x12 -1 x829 -1 x1103 -1 x826 = 0 ;
+2 x1105 +1 x13 -1 x831 -1 x1104 -1 x828 = 0 ;
+2 x1106 +1 x14 -1 x833 -1 x1105 -1 x830 = 0 ;
+2 x1107 +1 x15 -1 x835 -1 x1106 -1 x832 = 0 ;
+2 x1108 +1 x16 -1 x837 -1 x1107 -1 x834 = 0 ;
+2 x1109 +1 x17 -1 x839 -1 x1108 -1 x836 = 0 ;
+2 x1110 +1 x18 -1 x841 -1 x1109 -1 x838 = 0 ;
+2 x1111 +1 x19 -1 x843 -1 x1110 -1 x840 = 0 ;
+2 x1112 +1 x20 -1 x845 -1 x1111 -1 x842 = 0 ;
+2 x1113 +1 x21 -1 x847 -1 x1112 -1 x844 = 0 ;
+2 x1114 +1 x22 -1 x849 -1 x1113 -1 x846 = 0 ;
+2 x1115 +1 x23 -1 x851 -1 x1114 -1 x848 = 0 ;
+2 x1116 +1 x24 -1 x853 -1 x1115 -1 x850 = 0 ;
+2 x1117 +1 x25 -1 x855 -1 x1116 -1 x852 = 0 ;
+2 x1118 +1 x26 -1 x857 -1 x1117 -1 x854 = 0 ;
+2 x1119 +1 x27 -1 x859 -1 x1118 -1 x856 = 0 ;
+2 x1120 +1 x28 -1 x861 -1 x1119 -1 x858 = 0 ;
+2 x1121 +1 x29 -1 x863 -1 x1120 -1 x860 = 0 ;
+2 x1122 +1 x30 -1 x865 -1 x1121 -1 x862 = 0 ;
+1 x1122 -1 x31 = 0 ;
